9
0 17 77 60 38 80 66 77 33 
22 0 23 76 96 12 85 3 72 
55 65 0 38 65 60 38 39 11 
98 40 76 0 97 5 31 51 86 
26 3 76 2 0 25 50 12 83 
26 2 66 56 91 0 50 94 74 
84 59 93 78 36 3 0 32 54 
24 68 98 8 82 18 36 0 31 
51 11 48 58 23 2 93 14 0 
